(declare-const X String)
; ^[+-]?[0-9]+$
(assert (not (str.in_re X (re.++ (re.opt (re.union (str.to_re "+") (str.to_re "-"))) (re.+ (re.range "0" "9")) (str.to_re "\u{a}")))))
; Subject\x3A\swww\x2Esearchwords\x2Ecom
(assert (str.in_re X (re.++ (str.to_re "Subject:") (re.union (str.to_re " ") (str.to_re "\u{9}") (str.to_re "\u{a}") (str.to_re "\u{c}") (str.to_re "\u{d}")) (str.to_re "www.searchwords.com\u{a}"))))
; /filename=[^\n]*\x2epdf/i
(assert (str.in_re X (re.++ (str.to_re "/filename=") (re.* (re.comp (str.to_re "\u{a}"))) (str.to_re ".pdf/i\u{a}"))))
(check-sat)
